
Log started (V11.0.0) Sat May 24 14:04:54 2008

Tried aggregator 1 time.
Reduced MIP has 540 rows, 20001 columns, and 40040 nonzeros.
Presolve time =    0.16 sec.
Clique table members: 500.
MIP emphasis: balance optimality and feasibility.
MIP search method: dynamic search.
Parallel mode: none, using 1 thread.
Root relaxation solution time =    1.62 sec.

        Nodes                                         Cuts/
   Node  Left     Objective  IInf  Best Integer     Best Node    ItCnt     Gap

*     0+    0                       524615.0000    12526.8738      898   97.61%
*     0+    0                        13052.0000    12526.8738      898    4.02%
      0     0    12537.5591    79    13052.0000      Fract: 5     1021    3.94%
*     0+    0                        13038.0000    12537.5591     1021    3.84%
      0     0    12548.1851    78    13038.0000   Flowcuts: 1     1156    3.76%
      0     0    12557.4463    82    13038.0000       Cuts: 3     1300    3.69%
*     0+    0                        13034.0000    12557.4463     1300    3.66%
      0     0    12557.4464    89    13034.0000       Cuts: 4     1316    3.66%
      0     0    12557.4465    90    13034.0000       Cuts: 4     1355    3.66%
*     0+    0                        13033.0000    12557.4465     1355    3.65%
*     0+    0                        13032.0000    12557.4465     1355    3.64%
*     0+    0                        13029.0000    12557.4465     1355    3.62%
      0     2    12557.4465    90    13029.0000    12557.4465     1355    3.62%
*    10+   10                        13028.0000    12557.4572     1445    3.61%
    100   102    12558.9209    91    13028.0000    12557.4572     2159    3.61%
*   130+  130                        13027.0000    12557.4572     2336    3.60%
    200   202    12559.1577    92    13027.0000    12557.4572     2920    3.60%
    300   302    12559.3751    89    13027.0000    12557.4572     3695    3.60%
    400   402    12559.6242    89    13027.0000    12557.4572     4496    3.60%
*   450+  450                        13026.0000    12557.4572     4950    3.60%
    500   502    12559.8199    91    13026.0000    12557.4572     5353    3.60%
    600   574    12733.2827   221    13026.0000    12732.8565    32809    2.25%
    700   606    12734.2561   109    13026.0000    12732.8565    39891    2.25%
    800   622    12744.0192    99    13026.0000    12732.8565    41183    2.25%
    900   645    12755.3014    98    13026.0000    12732.8565    42102    2.25%
   1000   677    12765.8185    94    13026.0000    12732.8565    44365    2.25%
Elapsed time = 513.88 sec. (tree size =  9.09 MB, solutions = 10)
   1100   699    12776.6949    94    13026.0000    12732.8565    47803    2.25%
   1200   718    12787.7491    91    13026.0000    12732.8565    48802    2.25%
   1300   671    12788.1114    94    13026.0000    12732.8565    50709    2.25%
   1400   714    12798.8391    84    13026.0000    12732.8565    52473    2.25%
   1500   808    12810.7290    84    13026.0000    12732.8565    54967    2.25%
   1600   908    12810.8888    81    13026.0000    12732.8565    56852    2.25%
   1700  1008    12811.3190    76    13026.0000    12732.8565    58384    2.25%
   1800  1108    12811.7694    77    13026.0000    12732.8565    59817    2.25%
   1900  1208    12811.8608    73    13026.0000    12732.8565    60478    2.25%
   2000  1308    12811.9513    78    13026.0000    12732.8565    60888    2.25%
Elapsed time = 720.72 sec. (tree size = 19.76 MB, solutions = 10)
   2100  1408    12820.3468    75    13026.0000    12732.8565    62502    2.25%
   2200  1508    12821.5706    81    13026.0000    12732.8565    64619    2.25%
   2300  1606    12828.1397    79    13026.0000    12732.8565    68223    2.25%
   2400  1704    13017.0000    44    13026.0000    12732.8565    70435    2.25%
   2500  1802    13017.0000    48    13026.0000    12732.8565    70895    2.25%
   2600  1902    13017.0000    47    13026.0000    12732.8565    71204    2.25%
   2700  2002    13017.0000    45    13026.0000    12732.8565    71533    2.25%
   2800  2094    13018.0000    42    13026.0000    12732.8565    72076    2.25%
   2900  2194    13018.0000    41    13026.0000    12732.8565    72862    2.25%
   3000  2294    13018.0000    42    13026.0000    12732.8565    73942    2.25%
Elapsed time = 816.06 sec. (tree size = 35.04 MB, solutions = 10)
   3100  2394    13018.0000    40    13026.0000    12732.8565    74470    2.25%
   3200  2494    13018.0000    42    13026.0000    12732.8565    75121    2.25%
   3300  2594    13018.0000    40    13026.0000    12732.8565    76000    2.25%
   3400  2694    13018.0000    44    13026.0000    12732.8565    76969    2.25%
   3500  2790    12733.4346   237    13026.0000    12732.8833    80053    2.25%
   3600  2890    12734.3058   116    13026.0000    12732.8833    85538    2.25%
   3700  2990    12734.4889   105    13026.0000    12732.8833    86232    2.25%
   3800  3090    12744.9194   104    13026.0000    12732.8833    87155    2.25%
   3900  3186    12746.1201   105    13026.0000    12732.8833    87625    2.25%
   4000  3267    12746.5233   103    13026.0000    12732.8833    89044    2.25%
Elapsed time = 933.34 sec. (tree size = 49.70 MB, solutions = 10)
   4100  3357    12746.9225   102    13026.0000    12732.8833    90369    2.25%
   4200  3444    12767.3622   102    13026.0000    12732.8833    92626    2.25%
   4300  3544    12767.4405   102    13026.0000    12732.8833    93010    2.25%
   4400  3624    12777.6233    97    13026.0000    12732.8833    94090    2.25%
   4500  3724    12777.8914   101    13026.0000    12732.8833    96737    2.25%
   4600  3824    12778.3229    97    13026.0000    12732.8833    99503    2.25%
   4700  3924    12778.5105    97    13026.0000    12732.8833   101469    2.25%
   4800  4024    12778.9977    98    13026.0000    12732.8833   103800    2.25%
   4900  4124    12797.0047    90    13026.0000    12732.8833   106246    2.25%
   5000  4223    12810.0588    89    13026.0000    12732.8833   107334    2.25%
Elapsed time = 1086.38 sec. (tree size = 65.02 MB, solutions = 10)
   5100  4323    12810.3700    87    13026.0000    12732.8833   108418    2.25%
   5200  4405    12810.8081    83    13026.0000    12732.8833   109936    2.25%
   5300  4497    12821.3215    92    13026.0000    12732.8833   112161    2.25%
   5400  4597    12821.6023    92    13026.0000    12732.8833   113389    2.25%
   5500  4697    12821.7769    91    13026.0000    12732.8833   114036    2.25%
   5600  4797    12821.9039    91    13026.0000    12732.8833   114861    2.25%
   5700  4897    12822.2273    89    13026.0000    12732.8833   115625    2.25%
   5800  4992    12733.7715   547    13026.0000    12733.0616   140478    2.25%
   5900  5092    12739.8022   315    13026.0000    12733.0616   147091    2.25%
   6000  5190    12734.0876   432    13026.0000    12733.0639   159404    2.25%
Elapsed time = 1491.73 sec. (tree size = 81.90 MB, solutions = 10)
   6100  5290    12734.9933   216    13026.0000    12733.0639   167883    2.25%
   6200  5390    12734.2587   421    13026.0000    12733.0656   173096    2.25%
   6300  5490    12746.5426   291    13026.0000    12733.0656   179362    2.25%
   6400  5590    12734.2621   438    13026.0000    12733.0656   189050    2.25%
   6500  5690    12734.9911   229    13026.0000    12733.0656   193836    2.25%
   6600  5790    12734.3193   415    13026.0000    12733.0671   201751    2.25%
   6700  5890    12735.6897   275    13026.0000    12733.0671   206028    2.25%
   6800  5990    12733.9895   484    13026.0000    12733.0674   216703    2.25%
   6900  6090    12735.2357   197    13026.0000    12733.0674   221720    2.25%
   7000  6190    12734.1745   468    13026.0000    12733.0710   227824    2.25%
Elapsed time = 2378.14 sec. (tree size = 104.97 MB, solutions = 10)
   7100  6290    12740.9771   303    13026.0000    12733.0710   235779    2.25%
   7200  6390    12734.2111   426    13026.0000    12733.0818   243087    2.25%
   7300  6490    12735.5685   276    13026.0000    12733.0818   247946    2.25%
   7400  6590    12734.1755   436    13026.0000    12733.0852   255882    2.25%
   7500  6690    12735.0637   222    13026.0000    12733.0852   261231    2.25%
   7600  6790    12734.0666   481    13026.0000    12733.0863   269523    2.25%
   7700  6890    12735.2264   225    13026.0000    12733.0863   275926    2.25%
   7800  6990    12745.5416   370    13026.0000    12733.0935   288039    2.25%
   7900  7090    12753.6125   159    13026.0000    12733.0935   292179    2.25%
Began writing nodes to disk (directory ./cpxa01652 created)
   8000  7190    12734.1437   450    13026.0000    12733.0987   301112    2.25%
Elapsed time = 3197.30 sec. (tree size = 129.41 MB, solutions = 10)
Nodefile size =  1.70 MB (0.56 MB after compression)
   8100  7290    12735.2720   261    13026.0000    12733.0987   305105    2.25%
   8200  7390    12734.3731   446    13026.0000    12733.0988   312880    2.25%
   8300  7490    12741.0083   292    13026.0000    12733.0988   317563    2.25%
   8400  7590    12734.3275   449    13026.0000    12733.1057   325536    2.25%
   8500  7690    12735.3344   253    13026.0000    12733.1057   331572    2.25%
   8600  7790    12738.7966   478    13026.0000    12733.1071   340845    2.25%
   8700  7890    12739.9192   268    13026.0000    12733.1071   345115    2.25%
   8800  7990    12734.2584   447    13026.0000    12733.1100   352154    2.25%
   8900  8090    12735.2512   252    13026.0000    12733.1100   357336    2.25%
   9000  8190    12734.2600   476    13026.0000    12733.1102   365566    2.25%
Elapsed time = 3800.98 sec. (tree size = 155.22 MB, solutions = 10)
Nodefile size = 27.87 MB (10.10 MB after compression)
   9100  8290    12740.3207   280    13026.0000    12733.1102   371424    2.25%
   9200  8390    12734.2084   469    13026.0000    12733.1114   382614    2.25%
   9300  8490    12735.1998   233    13026.0000    12733.1114   387739    2.25%
   9400  8590    12740.3930   392    13026.0000    12733.1125   402455    2.25%
   9500  8690    12741.3676   218    13026.0000    12733.1125   406278    2.25%
   9600  8790    12734.3030   484    13026.0000    12733.1154   414847    2.25%
   9700  8890    12741.5365   302    13026.0000    12733.1154   424798    2.25%
   9800  8990    12734.3141   479    13026.0000    12733.1214   434302    2.25%
   9900  9090    12741.3492   247    13026.0000    12733.1214   441222    2.25%
  10000  9190    12734.3146   433    13026.0000    12733.1218   449151    2.25%
Elapsed time = 4439.34 sec. (tree size = 182.45 MB, solutions = 10)
Nodefile size = 55.07 MB (21.89 MB after compression)
  10100  9290    12735.1655   243    13026.0000    12733.1218   453473    2.25%
  10200  9390    12734.3525   449    13026.0000    12733.1240   463803    2.25%
  10300  9490    12735.5113   310    13026.0000    12733.1240   469529    2.25%
  10400  9590    12734.3249   463    13026.0000    12733.1268   479019    2.25%
  10500  9690    12735.1738   248    13026.0000    12733.1268   483722    2.25%
  10600  9790    12734.4257   494    13026.0000    12733.1321   492372    2.25%
  10700  9890    12740.5849   235    13026.0000    12733.1321   497840    2.25%
  10800  9990    12734.4354   414    13026.0000    12733.1366   506523    2.25%
  10900 10090    12735.4666   250    13026.0000    12733.1366   510430    2.25%
  11000 10190    12734.2620   513    13026.0000    12733.1368   518435    2.25%
Elapsed time = 4998.44 sec. (tree size = 211.08 MB, solutions = 10)
Nodefile size = 83.51 MB (39.62 MB after compression)
  11100 10290    12735.5748   329    13026.0000    12733.1368   523879    2.25%
  11200 10390    12734.3359   469    13026.0000    12733.1375   533213    2.25%
  11300 10490    12735.5721   276    13026.0000    12733.1375   538000    2.25%
  11400 10590    12734.3864   475    13026.0000    12733.1381   546224    2.25%
  11500 10690    12735.4327   233    13026.0000    12733.1381   551227    2.25%
  11600 10790    12734.1571   530    13026.0000    12733.1405   559183    2.25%
  11700 10890    12735.0260   319    13026.0000    12733.1405   572343    2.25%
  11800 10990    12734.4051   520    13026.0000    12733.1420   582204    2.25%
  11900 11090    12735.5205   283    13026.0000    12733.1420   586908    2.25%
  12000 11190    12734.3178   531    13026.0000    12733.1437   593987    2.25%
Elapsed time = 5609.56 sec. (tree size = 241.06 MB, solutions = 10)
Nodefile size = 113.67 MB (63.58 MB after compression)
  12100 11290    12735.5863   286    13026.0000    12733.1437   599742    2.25%
  12200 11390    12734.1974   552    13026.0000    12733.1440   607695    2.25%
  12300 11490    12735.5345   323    13026.0000    12733.1440   614342    2.25%
  12400 11590    12734.5154   459    13026.0000    12733.1443   624948    2.25%
  12500 11690    12735.4403   271    13026.0000    12733.1443   630341    2.25%
  12600 11790    12734.2894   513    13026.0000    12733.1447   640415    2.25%
  12700 11890    12735.6888   334    13026.0000    12733.1447   646225    2.25%
  12800 11990    12734.3181   537    13026.0000    12733.1448   654424    2.25%
  12900 12090    12735.8030   303    13026.0000    12733.1448   659664    2.25%
  13000 12190    12739.2261   516    13026.0000    12733.1452   671405    2.25%
Elapsed time = 6217.17 sec. (tree size = 272.35 MB, solutions = 10)
Nodefile size = 145.18 MB (89.64 MB after compression)
  13100 12290    12740.3828   308    13026.0000    12733.1452   678293    2.25%
  13200 12390    12734.3543   483    13026.0000    12733.1472   687472    2.25%
  13300 12490    12735.3273   242    13026.0000    12733.1472   691270    2.25%
  13400 12590    12734.4151   500    13026.0000    12733.1475   700477    2.25%
  13500 12690    12735.1999   324    13026.0000    12733.1475   705681    2.25%
  13600 12790    12734.3540   461    13026.0000    12733.1478   715024    2.25%
  13700 12890    12735.7414   276    13026.0000    12733.1478   720468    2.25%
  13800 12990    12734.4672   463    13026.0000    12733.1482   730152    2.25%
  13900 13090    12735.7539   312    13026.0000    12733.1482   735675    2.25%
  14000 13190    12734.2423   537    13026.0000    12733.1490   742677    2.25%
Elapsed time = 6817.45 sec. (tree size = 304.91 MB, solutions = 10)
Nodefile size = 177.72 MB (116.23 MB after compression)
  14100 13290    12735.3017   273    13026.0000    12733.1490   749141    2.25%
  14200 13390    12734.2363   551    13026.0000    12733.1490   757361    2.25%
  14300 13490    12740.7971   369    13026.0000    12733.1490   768992    2.25%

Cover cuts applied:  1899
Flow cuts applied:  5
Gomory fractional cuts applied:  28

Solution pool: 10 solutions saved.

MIP - Time limit exceeded, integer feasible:  Objective = 1.3026000000e+004
Current MIP best bound = 1.2733150277e+004 (gap = 292.85, 2.25%)
Solution time = 7200.13 sec.  Iterations = 774417  Nodes = 14369 (13558)


Incumbent solution
Variable Name           Solution Value
Cmax                      13026.000000
X_1_13                        1.000000
X_2_10                        1.000000
X_3_32                        1.000000
X_4_28                        1.000000
X_5_20                        1.000000
X_6_2                         1.000000
X_7_14                        1.000000
X_8_37                        1.000000
X_9_28                        1.000000
X_10_40                       1.000000
X_11_28                       1.000000
X_12_7                        1.000000
X_13_10                       1.000000
X_14_17                       1.000000
X_15_22                       1.000000
X_16_14                       1.000000
X_17_5                        1.000000
X_18_24                       1.000000
X_19_38                       1.000000
X_20_32                       1.000000
X_21_22                       1.000000
X_22_24                       1.000000
X_23_21                       1.000000
X_24_8                        1.000000
X_25_11                       1.000000
X_26_29                       1.000000
X_27_15                       1.000000
X_28_37                       1.000000
X_29_24                       1.000000
X_30_22                       1.000000
X_31_18                       1.000000
X_32_20                       1.000000
X_33_32                       1.000000
X_34_33                       1.000000
X_35_23                       1.000000
X_36_19                       1.000000
X_37_5                        1.000000
X_38_33                       1.000000
X_39_11                       1.000000
X_40_18                       1.000000
X_41_25                       1.000000
X_42_15                       1.000000
X_43_17                       1.000000
X_44_37                       1.000000
X_45_16                       1.000000
X_46_9                        1.000000
X_47_38                       1.000000
X_48_14                       1.000000
X_49_7                        1.000000
X_50_33                       1.000000
X_51_13                       1.000000
X_52_8                        1.000000
X_53_20                       1.000000
X_54_3                        1.000000
X_55_22                       1.000000
X_56_10                       1.000000
X_57_24                       1.000000
X_58_38                       1.000000
X_59_5                        1.000000
X_60_6                        1.000000
X_61_6                        1.000000
X_62_29                       1.000000
X_63_1                        1.000000
X_64_9                        1.000000
X_65_39                       1.000000
X_66_8                        1.000000
X_67_9                        1.000000
X_68_17                       1.000000
X_69_39                       1.000000
X_70_26                       1.000000
X_71_18                       1.000000
X_72_21                       1.000000
X_73_29                       1.000000
X_74_24                       1.000000
X_75_35                       1.000000
X_76_24                       1.000000
X_77_16                       1.000000
X_78_20                       1.000000
X_79_31                       1.000000
X_80_15                       1.000000
X_81_12                       1.000000
X_82_4                        1.000000
X_83_31                       1.000000
X_84_33                       1.000000
X_85_17                       1.000000
X_86_4                        1.000000
X_87_32                       1.000000
X_88_27                       1.000000
X_89_8                        1.000000
X_90_23                       1.000000
X_91_9                        1.000000
X_92_20                       1.000000
X_93_34                       1.000000
X_94_3                        1.000000
X_95_17                       1.000000
X_96_24                       1.000000
X_97_38                       1.000000
X_98_36                       1.000000
X_99_11                       1.000000
X_100_7                       1.000000
X_101_35                      1.000000
X_102_33                      1.000000
X_103_21                      1.000000
X_104_25                      1.000000
X_105_2                       1.000000
X_106_15                      1.000000
X_107_27                      1.000000
X_108_28                      1.000000
X_109_3                       1.000000
X_110_6                       1.000000
X_111_6                       1.000000
X_112_5                       1.000000
X_113_24                      1.000000
X_114_31                      1.000000
X_115_16                      1.000000
X_116_2                       1.000000
X_117_22                      1.000000
X_118_24                      1.000000
X_119_30                      1.000000
X_120_37                      1.000000
X_121_27                      1.000000
X_122_12                      1.000000
X_123_1                       1.000000
X_124_6                       1.000000
X_125_3                       1.000000
X_126_13                      1.000000
X_127_7                       1.000000
X_128_32                      1.000000
X_129_34                      1.000000
X_130_30                      1.000000
X_131_8                       1.000000
X_132_35                      1.000000
X_133_11                      1.000000
X_134_14                      1.000000
X_135_19                      1.000000
X_136_16                      1.000000
X_137_2                       1.000000
X_138_2                       1.000000
X_139_35                      1.000000
X_140_32                      1.000000
X_141_3                       1.000000
X_142_38                      1.000000
X_143_39                      1.000000
X_144_11                      1.000000
X_145_36                      1.000000
X_146_39                      1.000000
X_147_5                       1.000000
X_148_20                      1.000000
X_149_21                      1.000000
X_150_40                      1.000000
X_151_40                      1.000000
X_152_35                      1.000000
X_153_38                      1.000000
X_154_27                      1.000000
X_155_10                      1.000000
X_156_1                       1.000000
X_157_39                      1.000000
X_158_4                       1.000000
X_159_4                       1.000000
X_160_13                      1.000000
X_161_34                      1.000000
X_162_39                      1.000000
X_163_8                       1.000000
X_164_21                      1.000000
X_165_8                       1.000000
X_166_15                      1.000000
X_167_27                      1.000000
X_168_11                      1.000000
X_169_23                      1.000000
X_170_10                      1.000000
X_171_7                       1.000000
X_172_21                      1.000000
X_173_7                       1.000000
X_174_4                       1.000000
X_175_27                      1.000000
X_176_16                      1.000000
X_177_38                      1.000000
X_178_7                       1.000000
X_179_20                      1.000000
X_180_7                       1.000000
X_181_9                       1.000000
X_182_5                       1.000000
X_183_1                       1.000000
X_184_30                      1.000000
X_185_18                      1.000000
X_186_9                       1.000000
X_187_4                       1.000000
X_188_18                      1.000000
X_189_12                      1.000000
X_190_6                       1.000000
X_191_29                      1.000000
X_192_4                       1.000000
X_193_6                       1.000000
X_194_14                      1.000000
X_195_34                      1.000000
X_196_19                      1.000000
X_197_30                      1.000000
X_198_34                      1.000000
X_199_3                       1.000000
X_200_1                       1.000000
X_201_40                      1.000000
X_202_17                      1.000000
X_203_29                      1.000000
X_204_26                      1.000000
X_205_26                      1.000000
X_206_30                      1.000000
X_207_38                      1.000000
X_208_36                      1.000000
X_209_15                      1.000000
X_210_17                      1.000000
X_211_14                      1.000000
X_212_17                      1.000000
X_213_36                      1.000000
X_214_26                      1.000000
X_215_30                      1.000000
X_216_7                       1.000000
X_217_3                       1.000000
X_218_19                      1.000000
X_219_13                      1.000000
X_220_31                      1.000000
X_221_29                      1.000000
X_222_13                      1.000000
X_223_40                      1.000000
X_224_16                      1.000000
X_225_6                       1.000000
X_226_34                      1.000000
X_227_22                      1.000000
X_228_31                      1.000000
X_229_16                      1.000000
X_230_31                      1.000000
X_231_5                       1.000000
X_232_30                      1.000000
X_233_20                      1.000000
X_234_34                      1.000000
X_235_28                      1.000000
X_236_7                       1.000000
X_237_37                      1.000000
X_238_3                       1.000000
X_239_19                      1.000000
X_240_14                      1.000000
X_241_14                      1.000000
X_242_31                      1.000000
X_243_11                      1.000000
X_244_23                      1.000000
X_245_14                      1.000000
X_246_25                      1.000000
X_247_19                      1.000000
X_248_21                      1.000000
X_249_37                      1.000000
X_250_37                      1.000000
X_251_11                      1.000000
X_252_40                      1.000000
X_253_21                      1.000000
X_254_25                      1.000000
X_255_18                      1.000000
X_256_39                      1.000000
X_257_17                      1.000000
X_258_27                      1.000000
X_259_18                      1.000000
X_260_16                      1.000000
X_261_15                      1.000000
X_262_32                      1.000000
X_263_9                       1.000000
X_264_16                      1.000000
X_265_40                      1.000000
X_266_11                      1.000000
X_267_33                      1.000000
X_268_40                      1.000000
X_269_12                      1.000000
X_270_22                      1.000000
X_271_1                       1.000000
X_272_30                      1.000000
X_273_26                      1.000000
X_274_5                       1.000000
X_275_35                      1.000000
X_276_23                      1.000000
X_277_19                      1.000000
X_278_33                      1.000000
X_279_37                      1.000000
X_280_40                      1.000000
X_281_14                      1.000000
X_282_36                      1.000000
X_283_36                      1.000000
X_284_2                       1.000000
X_285_25                      1.000000
X_286_5                       1.000000
X_287_35                      1.000000
X_288_2                       1.000000
X_289_24                      1.000000
X_290_27                      1.000000
X_291_18                      1.000000
X_292_22                      1.000000
X_293_35                      1.000000
X_294_24                      1.000000
X_295_12                      1.000000
X_296_35                      1.000000
X_297_25                      1.000000
X_298_35                      1.000000
X_299_22                      1.000000
X_300_12                      1.000000
X_301_27                      1.000000
X_302_2                       1.000000
X_303_27                      1.000000
X_304_10                      1.000000
X_305_17                      1.000000
X_306_31                      1.000000
X_307_38                      1.000000
X_308_34                      1.000000
X_309_1                       1.000000
X_310_36                      1.000000
X_311_19                      1.000000
X_312_29                      1.000000
X_313_10                      1.000000
X_314_34                      1.000000
X_315_30                      1.000000
X_316_15                      1.000000
X_317_36                      1.000000
X_318_3                       1.000000
X_319_16                      1.000000
X_320_18                      1.000000
X_321_31                      1.000000
X_322_25                      1.000000
X_323_20                      1.000000
X_324_11                      1.000000
X_325_38                      1.000000
X_326_21                      1.000000
X_327_15                      1.000000
X_328_9                       1.000000
X_329_24                      1.000000
X_330_10                      1.000000
X_331_28                      1.000000
X_332_3                       1.000000
X_333_5                       1.000000
X_334_17                      1.000000
X_335_28                      1.000000
X_336_22                      1.000000
X_337_19                      1.000000
X_338_33                      1.000000
X_339_12                      1.000000
X_340_9                       1.000000
X_341_12                      1.000000
X_342_10                      1.000000
X_343_12                      1.000000
X_344_40                      1.000000
X_345_37                      1.000000
X_346_5                       1.000000
X_347_20                      1.000000
X_348_18                      1.000000
X_349_26                      1.000000
X_350_32                      1.000000
X_351_11                      1.000000
X_352_27                      1.000000
X_353_12                      1.000000
X_354_23                      1.000000
X_355_9                       1.000000
X_356_12                      1.000000
X_357_27                      1.000000
X_358_22                      1.000000
X_359_25                      1.000000
X_360_23                      1.000000
X_361_15                      1.000000
X_362_31                      1.000000
X_363_25                      1.000000
X_364_33                      1.000000
X_365_18                      1.000000
X_366_27                      1.000000
X_367_8                       1.000000
X_368_29                      1.000000
X_369_21                      1.000000
X_370_7                       1.000000
X_371_29                      1.000000
X_372_10                      1.000000
X_373_40                      1.000000
X_374_9                       1.000000
X_375_7                       1.000000
X_376_28                      1.000000
X_377_23                      1.000000
X_378_1                       1.000000
X_379_34                      1.000000
X_380_34                      1.000000
X_381_6                       1.000000
X_382_37                      1.000000
X_383_28                      1.000000
X_384_38                      1.000000
X_385_37                      1.000000
X_386_8                       1.000000
X_387_6                       1.000000
X_388_4                       1.000000
X_389_36                      1.000000
X_390_26                      1.000000
X_391_8                       1.000000
X_392_36                      1.000000
X_393_39                      1.000000
X_394_16                      1.000000
X_395_8                       1.000000
X_396_37                      1.000000
X_397_25                      1.000000
X_398_8                       1.000000
X_399_17                      1.000000
X_400_40                      1.000000
X_401_30                      1.000000
X_402_33                      1.000000
X_403_9                       1.000000
X_404_18                      1.000000
X_405_5                       1.000000
X_406_35                      1.000000
X_407_6                       1.000000
X_408_39                      1.000000
X_409_32                      1.000000
X_410_5                       1.000000
X_411_16                      1.000000
X_412_13                      1.000000
X_413_2                       1.000000
X_414_23                      1.000000
X_415_2                       1.000000
X_416_25                      1.000000
X_417_1                       1.000000
X_418_10                      1.000000
X_419_31                      1.000000
X_420_33                      1.000000
X_421_22                      1.000000
X_422_21                      1.000000
X_423_1                       1.000000
X_424_39                      1.000000
X_425_1                       1.000000
X_426_32                      1.000000
X_427_4                       1.000000
X_428_11                      1.000000
X_429_19                      1.000000
X_430_14                      1.000000
X_431_25                      1.000000
X_432_34                      1.000000
X_433_32                      1.000000
X_434_29                      1.000000
X_435_21                      1.000000
X_436_31                      1.000000
X_437_29                      1.000000
X_438_13                      1.000000
X_439_33                      1.000000
X_440_15                      1.000000
X_441_13                      1.000000
X_442_13                      1.000000
X_443_19                      1.000000
X_444_40                      1.000000
X_445_17                      1.000000
X_446_15                      1.000000
X_447_23                      1.000000
X_448_4                       1.000000
X_449_2                       1.000000
X_450_39                      1.000000
X_451_6                       1.000000
X_452_23                      1.000000
X_453_26                      1.000000
X_454_12                      1.000000
X_455_8                       1.000000
X_456_19                      1.000000
X_457_23                      1.000000
X_458_26                      1.000000
X_459_23                      1.000000
X_460_38                      1.000000
X_461_19                      1.000000
X_462_30                      1.000000
X_463_18                      1.000000
X_464_10                      1.000000
X_465_38                      1.000000
X_466_13                      1.000000
X_467_4                       1.000000
X_468_3                       1.000000
X_469_20                      1.000000
X_470_32                      1.000000
X_471_33                      1.000000
X_472_28                      1.000000
X_473_14                      1.000000
X_474_22                      1.000000
X_475_28                      1.000000
X_476_36                      1.000000
X_477_13                      1.000000
X_478_31                      1.000000
X_479_39                      1.000000
X_480_12                      1.000000
X_481_14                      1.000000
X_482_21                      1.000000
X_483_1                       1.000000
X_484_30                      1.000000
X_485_11                      1.000000
X_486_26                      1.000000
X_487_24                      1.000000
X_488_29                      1.000000
X_489_36                      1.000000
X_490_20                      1.000000
X_491_4                       1.000000
X_492_26                      1.000000
X_493_2                       1.000000
X_494_26                      1.000000
X_495_35                      1.000000
X_496_7                       1.000000
X_497_9                       1.000000
X_498_3                       1.000000
X_499_4                       1.000000
X_500_37                      1.000000
All other variables in the range 1-20001 are 0.
